! B3LYP DEF2-SVP Opt TightSCF
%scf 
    MaxIter 200
end
* xyzfile 0 1 _230.xyz
